LAMMPS (27 Jun 2024)
WARNING: Using I/O redirection is unreliable with parallel runs. Better to use the -in switch to read input files. (src/lammps-27Jun2024/src/lammps.cpp:551)
OMP_NUM_THREADS environment is not set. Defaulting to 1 thread. (src/lammps-27Jun2024/src/comm.cpp:98)
  using 1 OpenMP thread(s) per MPI task
# 3d Lennard-Jones melt

variable        x index 1
variable        y index 1
variable        z index 1

variable        xx equal 20*$x
variable        xx equal 20*1
variable        yy equal 20*$y
variable        yy equal 20*1
variable        zz equal 20*$z
variable        zz equal 20*1

units           lj
atom_style      atomic

lattice         fcc 0.8442
Lattice spacing in x,y,z = 1.6795962 1.6795962 1.6795962
region          box block 0 ${xx} 0 ${yy} 0 ${zz}
region          box block 0 20 0 ${yy} 0 ${zz}
region          box block 0 20 0 20 0 ${zz}
region          box block 0 20 0 20 0 20
create_box      1 box
Created orthogonal box = (0 0 0) to (33.591924 33.591924 33.591924)
  2 by 2 by 2 MPI processor grid
create_atoms    1 box
Created 32000 atoms
  using lattice units in orthogonal box = (0 0 0) to (33.591924 33.591924 33.591924)
  create_atoms CPU = 0.001 seconds
mass            1 1.0

velocity        all create 1.44 87287 loop geom

pair_style      lj/cut 2.5
pair_coeff      1 1 1.0 1.0 2.5

neighbor        0.3 bin
neigh_modify    delay 0 every 20 check no

fix             1 all nve

run             100
Generated 0 of 0 mixed pair_coeff terms from geometric mixing rule
Neighbor list info ...
  update: every = 20 steps, delay = 0 steps, check = no
  max neighbors/atom: 2000, page size: 100000
  master list distance cutoff = 2.8
  ghost atom cutoff = 2.8
  binsize = 1.4, bins = 24 24 24
  1 neighbor lists, perpetual/occasional/extra = 1 0 0
  (1) pair lj/cut, perpetual
      attributes: half, newton on
      pair build: half/bin/atomonly/newton
      stencil: half/bin/3d
      bin: standard
Per MPI rank memory allocation (min/avg/max) = 3.225 | 3.225 | 3.225 Mbytes
   Step          Temp          E_pair         E_mol          TotEng         Press     
         0   1.44          -6.7733681      0             -4.6134356     -5.0197073    
       100   0.7574531     -5.7585055      0             -4.6223613      0.20726105   
Loop time of 0.218186 on 8 procs for 100 steps with 32000 atoms

Performance: 197996.562 tau/day, 458.325 timesteps/s, 14.666 Matom-step/s
97.6% CPU use with 8 MPI tasks x 1 OpenMP threads

MPI task timing breakdown:
Section |  min time  |  avg time  |  max time  |%varavg| %total
---------------------------------------------------------------
Pair    | 0.16549    | 0.16807    | 0.16993    |   0.3 | 77.03
Neigh   | 0.02682    | 0.027599   | 0.02877    |   0.5 | 12.65
Comm    | 0.014507   | 0.017695   | 0.020505   |   1.4 |  8.11
Output  | 2.8438e-05 | 3.2798e-05 | 4.0369e-05 |   0.0 |  0.02
Modify  | 0.0029821  | 0.003025   | 0.0030735  |   0.0 |  1.39
Other   |            | 0.00176    |            |       |  0.81

Nlocal:           4000 ave        4033 max        3962 min
Histogram: 1 0 1 1 0 2 1 0 0 2
Nghost:        5756.75 ave        5804 max        5724 min
Histogram: 1 1 1 1 2 0 1 0 0 1
Neighs:         150354 ave      152935 max      147476 min
Histogram: 1 0 0 1 2 1 1 0 1 1

Total # of neighbors = 1202833
Ave neighs/atom = 37.588531
Neighbor list builds = 5
Dangerous builds not checked
Total wall time: 0:00:00
